job_count = 20 ;
duration = [|8, 7|11, 1|18, 1|13, 8|3, 8|2, 3|2, 9|16, 1|19, 2|17, 3|12, 4|8, 7|17, 4|6, 9|3, 4|10, 4|10, 5|6, 5|16, 1|16, 8|] ;
machine_count = 2 ;
cost = [|16, 20|18, 20|12, 37|10, 29|13, 39|10, 29|19, 36|12, 27|11, 35|10, 20|12, 30|11, 21|15, 20|17, 35|14, 28|19, 33|19, 32|12, 32|19, 29|11, 22|] ;
deadline = [50, 50, 50, 50, 50, 50, 50, 50, 50, 50, 50, 50, 50, 50, 50, 50, 50, 50, 50, 50] ;
release = [0, 0, 0, 0, 0, 0, 0, 0, 0, 0, 0, 0, 0, 0, 0, 0, 0, 0, 0, 0] ;
resource = [|7, 7|8, 8|8, 8|9, 9|4, 4|4, 4|8, 8|6, 6|8, 8|8, 8|2, 2|2, 2|2, 2|3, 3|5, 5|4, 4|1, 1|9, 9|7, 7|3, 3|] ;
capacities = [10, 10] ;
